data/mip_solutions/furman_sahinidis/reduced_transportation/7sp2_gurobi.sol
Elapsed time: 0.0875971317291
Nodes explored: 7
Upper bound: 7.0
Lower bound: 7.0
y[0,0]=1
y[0,1]=1
y[0,2]=1
y[1,0]=1
y[1,3]=1
y[2,1]=1
y[3,0]=1
q[0,0,0,4]=162.0
q[0,0,1,6]=224.4
q[0,0,2,3]=967.92
q[0,1,2,3]=1473.12
q[0,2,2,3]=498.96
q[0,3,2,3]=1188.0
q[1,2,0,3]=331.17
q[1,3,3,4]=1053.5
q[1,3,3,5]=1154.3
q[1,4,0,4]=531.3
q[1,4,3,4]=1045.7
q[1,5,3,5]=157.7
q[2,1,1,3]=232.0
q[2,1,1,4]=446.4
q[2,1,1,5]=140.0
q[2,2,1,6]=277.2
q[2,3,1,3]=1848.0
q[2,4,0,4]=8.64019966684e-12
q[2,4,1,4]=1153.6
q[2,4,1,6]=166.4
q[2,5,1,5]=660.0
q[2,6,1,6]=132.0
q[3,3,0,3]=1268.83
q[3,3,0,4]=906.7
